 vasp.6.4.0  (build Jan 01 2025)
 NIONS =      2 ions
 VRHFIN =C: s2p2
 VRHFIN =O: s2p4
 ions per type = 1 1
 direct lattice vectors                 reciprocal lattice vectors
   10.00000000  0.00000000  0.00000000   0.10000000 0.00000000 0.00000000
    0.00000000 10.00000000  0.00000000   0.00000000 0.10000000 0.00000000
    0.00000000  0.00000000 10.00000000   0.00000000 0.00000000 0.10000000
 free  energy   TOTEN  =       -10.123456 eV
 energy(sigma->0) =       -10.120000
 POSITION                                       TOTAL-FORCE (eV/Angst)
 -----------------------------------------------------------------------------------
      4.00000000      5.00000000      5.00000000      0.01000000      0.00000000      0.00000000
      5.54000000      5.00000000      5.00000000     -0.01000000      0.00000000      0.00000000
 -----------------------------------------------------------------------------------

